% seed = 0

mint = 22;
% maxt = 77;

nActs = 32;
dur = [0,2,2,2,3,2,2,6,7,4,2,1,3,2,2,4,3,2,2,2,1,3,1,5,1,1,5,1,1,4,1,0];

nSkills = 9;
sreq = [| 0,0,0,0,0,0,0,0,0,
	| 0,0,1,0,0,0,0,0,0,
	| 0,0,1,0,0,0,0,1,0,
	| 0,0,0,0,0,0,0,1,0,
	| 0,0,0,1,0,0,1,0,0,
	| 0,0,0,0,0,0,0,1,0,
	| 0,0,0,0,0,0,0,1,0,
	| 0,0,1,0,0,1,0,0,0,
	| 0,0,0,0,0,0,1,0,0,
	| 0,0,0,0,0,0,1,1,0,
	| 0,0,0,0,0,0,0,1,0,
	| 0,0,0,0,0,0,0,1,0,
	| 1,0,0,0,0,0,0,0,0,
	| 0,0,1,0,0,0,0,1,0,
	| 0,0,0,1,0,0,1,0,0,
	| 0,1,0,0,0,0,0,0,0,
	| 0,0,0,0,0,0,1,0,0,
	| 0,0,0,1,0,0,0,0,0,
	| 0,1,0,0,0,0,0,1,0,
	| 0,0,0,0,0,0,0,2,0,
	| 0,0,0,0,0,0,1,0,0,
	| 0,0,0,0,0,0,0,1,0,
	| 0,0,0,0,0,0,0,1,0,
	| 0,0,0,0,0,1,0,1,0,
	| 0,0,0,0,0,0,1,0,0,
	| 0,0,0,0,0,1,0,0,0,
	| 0,0,0,0,1,0,1,0,0,
	| 0,0,0,0,0,0,0,2,0,
	| 0,0,0,0,0,0,0,1,1,
	| 0,0,0,0,0,1,0,0,0,
	| 0,0,0,0,0,1,0,1,0,
	| 0,0,0,0,0,0,0,0,0, |];

% SumOfsreq = 43;

nResources = 8;
mastery = [| false,false,false,false,false,false,true,true,true,
	| false,false,true,true,true,true,false,false,true,
	| false,false,true,true,true,true,false,false,false,
	| false,false,false,false,false,false,false,true,true,
	| false,false,false,false,false,false,true,true,true,
	| true,true,true,false,false,false,false,false,false,
	| false,false,false,false,false,false,false,true,true,
	| false,false,false,false,false,false,false,true,true, |];

nPrecs = 48;
pred = [1,1,1,2,2,2,3,3,4,4,4,5,5,6,7,7,8,8,9,10,11,11,12,13,14,14,14,15,16,16,17,17,18,18,19,20,21,22,22,23,24,25,26,27,28,29,30,31];
succ = [2,3,4,13,5,22,6,8,26,11,7,18,12,16,9,17,10,15,27,14,27,20,26,16,19,21,31,25,28,23,25,20,26,30,20,29,24,25,31,29,28,27,28,30,29,32,32,32];

nUnrels = 301;
unpred = [2,2,2,2,2,2,2,2,2,2,2,2,2,2,2,3,3,3,3,3,3,3,3,3,3,3,4,4,4,4,4,4,4,4,4,4,4,4,4,4,4,4,5,5,5,5,5,5,5,5,5,5,5,5,5,5,5,5,5,5,5,5,6,6,6,6,6,6,6,6,6,6,6,6,6,6,6,6,6,6,6,6,6,7,7,7,7,7,7,7,7,7,7,7,7,7,7,7,7,7,8,8,8,8,8,8,8,8,8,8,9,9,9,9,9,9,9,9,9,9,9,9,9,9,9,9,9,9,9,9,10,10,10,10,10,10,10,10,10,10,10,10,10,11,11,11,11,11,11,11,11,11,11,11,11,11,11,11,11,12,12,12,12,12,12,12,12,12,12,12,12,12,12,12,12,13,13,13,13,13,13,13,13,13,13,13,13,13,13,14,14,14,14,14,14,14,14,14,14,15,15,15,15,15,15,15,15,15,15,15,15,15,16,16,16,16,16,16,16,16,16,16,16,16,17,17,17,17,17,17,17,17,17,18,18,18,18,18,18,18,18,18,19,19,19,19,19,19,19,19,19,19,20,20,20,20,20,20,20,20,20,20,21,21,21,21,21,21,21,22,22,22,22,22,23,23,23,23,23,23,23,24,24,24,24,24,25,25,25,25,26,26,26,27,27,27,28,28,29,29,30];
unsucc = [3,4,6,7,8,9,10,11,14,15,17,19,20,21,24,4,5,7,9,11,12,13,17,18,22,26,5,6,8,10,12,13,14,15,16,18,19,21,22,23,24,31,6,7,8,9,10,11,13,14,15,16,17,19,20,21,22,23,24,25,27,31,7,8,9,10,11,12,13,14,15,17,18,19,20,21,22,24,25,26,27,30,31,8,10,11,12,13,14,15,16,18,19,21,22,23,24,26,28,31,9,11,12,13,16,17,18,22,23,26,10,11,12,13,14,15,16,17,18,19,20,21,22,23,24,25,26,28,29,31,11,12,13,15,16,17,18,22,23,25,26,27,30,12,13,14,15,16,17,18,19,21,22,23,24,25,26,28,31,13,14,15,16,17,18,19,20,21,22,23,24,25,27,30,31,14,15,17,18,19,20,21,22,24,25,26,27,30,31,15,16,17,18,22,23,25,26,27,30,16,17,18,19,20,21,22,23,24,26,28,29,31,17,18,19,20,21,22,24,25,26,27,30,31,18,19,21,22,23,24,26,28,31,19,20,21,22,23,24,25,27,31,21,22,23,24,25,26,27,28,30,31,21,22,23,24,25,26,27,28,30,31,22,23,25,26,27,30,31,23,24,26,28,29,24,25,26,27,28,30,31,25,26,27,30,31,26,28,29,31,27,30,31,28,29,31,30,31,30,31,31];

USEFUL_RES = [{},
	{2,3,6},
	{1,2,3,4,5,6,7,8},
	{1,4,5,7,8},
	{1,2,3,5},
	{1,4,5,7,8},
	{1,4,5,7,8},
	{2,3,6},
	{1,5},
	{1,4,5,7,8},
	{1,4,5,7,8},
	{1,4,5,7,8},
	{6},
	{1,2,3,4,5,6,7,8},
	{1,2,3,5},
	{6},
	{1,5},
	{2,3},
	{1,4,5,6,7,8},
	{1,4,5,7,8},
	{1,5},
	{1,4,5,7,8},
	{1,4,5,7,8},
	{1,2,3,4,5,7,8},
	{1,5},
	{2,3},
	{1,2,3,5},
	{1,4,5,7,8},
	{1,2,4,5,7,8},
	{2,3},
	{1,2,3,4,5,7,8},
	{}];

POTENTIAL_ACT = [{3,4,5,6,7,9,10,11,12,14,15,17,19,20,21,22,23,24,25,27,28,29,31},
	{2,3,5,8,14,15,18,24,26,27,29,30,31},
	{2,3,5,8,14,15,18,24,26,27,30,31},
	{3,4,6,7,10,11,12,14,19,20,22,23,24,28,29,31},
	{3,4,5,6,7,9,10,11,12,14,15,17,19,20,21,22,23,24,25,27,28,29,31},
	{2,3,8,13,14,16,19},
	{3,4,6,7,10,11,12,14,19,20,22,23,24,28,29,31},
	{3,4,6,7,10,11,12,14,19,20,22,23,24,28,29,31}];
